
<<< setup


<<< generate

Tried aggregator 1 time.
MIP Presolve eliminated 0 rows and 1 columns.
MIP Presolve modified 66 coefficients.
Reduced MIP has 764 rows, 642 columns, and 3387 nonzeros.
Reduced MIP has 560 binaries, 0 generals, 0 SOSs, and 0 indicators.
Presolve time = 0,00 sec. (2,40 ticks)
Probing fixed 0 vars, tightened 15 bounds.
Probing time = 0,01 sec. (7,62 ticks)
Tried aggregator 1 time.
MIP Presolve modified 15 coefficients.
Reduced MIP has 764 rows, 642 columns, and 3387 nonzeros.
Reduced MIP has 560 binaries, 0 generals, 0 SOSs, and 0 indicators.
Presolve time = 0,00 sec. (1,61 ticks)
Probing time = 0,01 sec. (3,16 ticks)
Clique table members: 2292.
MIP emphasis: balance optimality and feasibility.
MIP search method: dynamic search.
Parallel mode: deterministic, using up to 4 threads.
Root relaxation solution time = 0,02 sec. (15,21 ticks)

        Nodes                                         Cuts/
   Node  Left     Objective  IInf  Best Integer    Best Bound    ItCnt     Gap

*     0+    0                            1,0000       40,0000      448     --- 
      0     0       39,6320   266        1,0000       39,6320      448     --- 
*     0+    0                            5,0000       39,6320      489  692,64%
      0     0       39,5901   186        5,0000      Cuts: 15      489  691,80%
      0     0       39,5335   156        5,0000      Cuts: 97      578  690,67%
      0     0       39,5272   164        5,0000     Cuts: 104      635  690,54%
      0     0       39,5185   158        5,0000     Cuts: 126      709  690,37%
      0     0       39,5075   147        5,0000     Cuts: 206      779  690,15%
      0     0       38,9008   140        5,0000     Cuts: 281      951  678,02%
      0     0       38,8842   147        5,0000     Cuts: 291     1066  677,68%
      0     0       38,8554   144        5,0000     Cuts: 291     1188  677,11%
      0     0       38,8439   164        5,0000     Cuts: 291     1374  676,88%
      0     0       38,8413   155        5,0000     Cuts: 291     1437  676,83%
      0     0       38,8368   127        5,0000     Cuts: 291     1468  676,74%
      0     0       38,8129   132        5,0000     Cuts: 291     1561  676,26%
      0     0       38,7898   155        5,0000     Cuts: 291     2022  675,80%
      0     0       38,6155   142        5,0000     Cuts: 291     2140  672,31%
      0     0       38,4206   138        5,0000     Cuts: 291     2289  668,41%
      0     0       38,2296   146        5,0000     Cuts: 291     2430  664,59%
      0     0       37,7223   163        5,0000     Cuts: 291     2653  654,45%
      0     0       37,4925   162        5,0000     Cuts: 182     2800  649,85%
      0     0       37,3282   140        5,0000     Cuts: 289     2902  646,56%
      0     0       37,1887   172        5,0000     Cuts: 291     3125  643,77%
*     0+    0                            8,0000       37,1887     3125  364,86%
*     0+    0                           13,0000       37,1887     3125  186,07%
*     0+    0                           17,0000       37,1887     3125  118,76%
*     0+    0                           19,0000       37,1887     3125   95,73%
      0     0       37,0863   161       19,0000     Cuts: 291     3248   95,19%
      0     0       36,9150   140       19,0000     Cuts: 291     3348   94,29%
      0     0       36,7194   133       19,0000     Cuts: 291     3455   93,26%
      0     0       36,0850   154       19,0000     Cuts: 291     3722   89,92%
      0     0       35,2022   133       19,0000     Cuts: 213     3835   85,27%
      0     0       34,4268   126       19,0000     Cuts: 240     4028   81,19%
*     0+    0                           20,0000       34,4268     4028   72,13%
      0     0       33,6526   125       20,0000     Cuts: 291     4182   68,26%
      0     0       32,8698   144       20,0000     Cuts: 256     4375   64,35%
      0     0       32,3028   143       20,0000     Cuts: 259     4616   61,51%
      0     0       30,8715   154       20,0000     Cuts: 241     4914   54,36%
      0     0       29,6677   152       20,0000     Cuts: 291     5069   48,34%
      0     0       29,3676   167       20,0000     Cuts: 220     5258   46,84%
      0     0       29,2293   167       20,0000     Cuts: 230     5419   46,15%
      0     0       29,1371   195       20,0000     Cuts: 149     6164   45,69%
*     0+    0                           21,0000       29,1371     6164   38,75%
      0     0       29,1059   228       21,0000     Cuts: 189     6734   38,60%
      0     0       28,8808   183       21,0000     Cuts: 217     6899   37,53%
*     0+    0                           22,0000       28,8808     7040   31,28%
      0     0       28,6365   164       22,0000     Cuts: 105     7040   30,17%
      0     0       28,4924   155       22,0000     Cuts: 193     7155   29,51%
      0     0       28,4344   151       22,0000      Cuts: 38     7243   29,25%
      0     0       28,3491   156       22,0000     Cuts: 169     7431   28,86%
      0     0       28,3101   154       22,0000      Cuts: 49     7677   28,68%
      0     0       28,2904   152       22,0000     Cuts: 128     7842   28,59%
      0     0       28,2680   155       22,0000     Cuts: 224     8061   28,49%
      0     0       28,2610   162       22,0000      Cuts: 72     8199   24,58%
      0     2       28,2610   139       22,0000       26,2140     8199   19,15%
Elapsed time = 4,24 sec. (1493,08 ticks, tree = 0,01 MB, solutions = 9)
*     4+    4                           23,0000       26,2140     9302   13,97%
     12    11       24,0211   266       23,0000       26,2140    14158   13,97%
    215    57        cutoff             23,0000       24,6633    29842    7,23%

Clique cuts applied:  6
Flow cuts applied:  79
Mixed integer rounding cuts applied:  105
Zero-half cuts applied:  23

Root node processing (before b&c):
  Real time             =    4,23 sec. (1486,77 ticks)
Parallel b&c, 4 threads:
  Real time             =    1,15 sec. (599,77 ticks)
  Sync time (average)   =    0,50 sec.
  Wait time (average)   =    0,00 sec.
                          ------------
Total (root+branch&cut) =    5,38 sec. (2086,53 ticks)

<<< solve


OBJECTIVE: 23

x[1][1] = 0 x[1][2] = 0 x[1][3] = 1 x[1][4] = 1 x[1][5] = 1 x[1][6] = 1 x[1][7] = 0 x[1][8] = 0 
x[2][1] = 1 x[2][2] = 1 x[2][3] = 1 x[2][4] = 1 x[2][5] = 1 x[2][6] = 1 x[2][7] = 1 x[2][8] = 0 
x[3][1] = 0 x[3][2] = 0 x[3][3] = 1 x[3][4] = 1 x[3][5] = 1 x[3][6] = 1 x[3][7] = 1 x[3][8] = 0 
x[4][1] = 0 x[4][2] = 0 x[4][3] = 0 x[4][4] = 0 x[4][5] = 1 x[4][6] = 1 x[4][7] = 1 x[4][8] = 0 
x[5][1] = 0 x[5][2] = 0 x[5][3] = 0 x[5][4] = 0 x[5][5] = 1 x[5][6] = 1 x[5][7] = 1 x[5][8] = 1 


<<< post process


<<< done

